3270
1439
1659
2353
2902
300
661
907
658
922
1123
4290
1068
1463
2893
356
1414
3198
2428
1011
2237
800
2331
2303
1610
1493
4010
3399
2706
1947
3514
1907
1092
3905
1024
2600
3908
2395
4056
1643
4355
1029
3544
3908
3287
2724
3775
3764
773
2153
1383
2812
2637
1105
1831
1118
2959
1417
728
206
626
3658
2511
567
771
387
3985
318
1770
3856
450
318
3760
2487
3595
1541
4240
2958
3908
1451
1375
445
2721
3958
3636
3567
2546
1577
669
3606
1643
1189
1812
1961
4359
3273
1778
794
4220
1853
